p wcnf 1000 200 2
1 1 0
1 2 0
1 3 0
1 4 0
1 5 0
1 6 0
1 7 0
2 8 0
2 9 0
2 10 0
2 11 0
2 12 0
1 2 2 2 2 3 3 3 3 3 3 3 0
1 3 3 3 3 3 3 3 4 4 4 4 0
1 4 4 4 4 5 5 5 5 5 5 5 0
1 5 5 5 5 5 5 5 6 6 6 6 0
1 6 6 6 6 6 7 7 7 7 7 7 0
1 7 7 8 8 8 8 8 8 8 8 8 0
1 8 9 9 9 9 9 9 9 9 9 9 0
1 10 10 10 10 10 10 10 10 10 10 10 0
1 11 11 11 11 11 11 11 11 11 11 11 0
1 12 12 12 12 12 12 12 13 13 13 13 0
1 13 13 14 14 14 14 14 14 14 14 14 0
1 15 15 15 15 15 15 15 15 15 16 16 0
1 16 16 16 16 16 16 16 16 16 16 16 0
1 17 17 17 17 17 17 17 17 17 17 17 0
1 18 18 18 18 18 18 18 18 18 18 19 0
1 19 19 19 19 19 19 19 19 19 19 19 0
1 20 20 20 20 20 20 20 20 20 20 21 0
1 21 21 21 21 22 22 22 22 22 22 22 0
1 22 22 23 23 23 23 24 24 24 24 24 0
1 24 24 25 25 25 25 25 25 25 25 25 0
1 25 25 26 26 26 26 26 26 26 27 27 0
1 27 27 27 27 27 27 28 28 28 28 28 0
1 28 28 28 28 28 28 28 28 29 29 29 0
1 29 29 29 29 29 29 30 30 30 30 30 0
1 30 30 30 30 30 30 30 31 31 31 31 0
1 31 31 31 31 31 31 32 32 32 32 32 0
1 32 32 33 33 33 33 33 33 33 34 34 0
1 34 34 34 34 34 34 34 34 34 34 34 0
1 34 35 35 35 35 35 35 35 35 35 35 0
1 35 35 36 36 36 36 36 36 36 37 37 0
1 37 37 37 37 37 38 38 38 38 38 38 0
1 39 39 39 39 39 40 40 40 40 40 40 0
1 40 40 40 40 40 40 41 41 41 41 41 0
1 41 41 42 42 42 42 42 42 42 42 43 0
1 43 43 43 43 43 43 43 43 43 44 44 0
1 44 44 44 44 44 44 44 44 44 44 44 0
1 45 45 45 45 45 45 46 46 46 46 46 0
1 46 46 46 46 46 46 46 46 47 47 47 0
1 47 47 47 47 47 47 47 47 47 47 47 0
1 48 48 48 48 48 48 48 48 48 48 48 0
1 49 49 49 49 49 49 49 49 49 49 49 0
1 50 50 50 50 50 50 50 50 50 50 50 0
1 51 51 51 51 51 51 51 51 51 51 52 0
1 52 52 52 52 52 52 52 52 53 53 53 0
1 54 54 54 54 54 54 54 55 55 55 55 0
1 55 55 55 55 55 56 56 56 56 56 56 0
1 56 56 56 56 56 56 56 57 57 57 57 0
1 57 57 58 58 58 58 58 58 58 58 59 0
1 59 59 59 59 59 59 60 60 60 60 60 0
1 60 60 60 60 60 60 60 60 60 60 61 0
1 61 61 61 61 61 61 61 61 61 61 61 0
1 61 62 62 62 62 62 62 62 62 63 63 0
1 63 64 64 64 64 64 64 64 64 64 64 0
1 64 64 65 65 65 65 65 65 65 65 65 0
1 66 66 66 66 66 66 66 66 66 67 67 0
1 67 67 67 67 67 67 67 68 68 68 68 0
1 68 68 68 68 68 68 69 69 69 69 69 0
1 70 70 70 70 70 70 70 70 71 71 71 0
1 71 71 71 71 71 72 72 72 72 72 72 0
1 72 72 72 72 72 72 72 72 73 73 73 0
1 73 73 73 74 74 74 74 74 75 75 75 0
1 75 75 75 75 75 75 75 76 76 76 76 0
1 76 76 76 76 76 76 76 76 76 76 77 0
1 77 77 77 77 77 77 77 77 77 77 78 0
1 78 78 78 78 78 79 79 79 79 79 79 0
1 79 79 79 80 80 80 80 80 80 80 80 0
1 80 80 80 80 80 80 80 81 81 81 81 0
1 81 81 81 81 81 81 81 81 81 81 81 0
1 81 82 82 82 82 82 82 82 82 82 82 0
1 82 83 83 83 83 83 83 83 84 84 84 0
1 84 84 84 84 85 85 85 85 85 86 86 0
1 86 86 86 86 86 87 87 87 87 87 87 0
1 87 87 88 88 88 88 88 88 88 89 89 0
1 89 89 89 89 89 89 89 89 89 89 90 0
1 90 90 90 90 90 90 90 91 91 91 91 0
1 92 92 92 92 92 93 93 93 93 93 93 0
1 93 93 94 94 94 94 94 94 94 94 94 0
1 94 94 94 94 94 94 95 95 95 95 95 0
1 95 95 95 95 96 96 96 96 96 96 96 0
1 97 97 97 97 97 98 98 98 98 98 98 0
1 98 99 99 99 99 99 99 99 99 99 99 0
1 99 99 100 100 100 100 100 100 100 100 100 0
1 100 100 100 0
1  0
1 116 127 187 207 275 291 440 487 542 553 657 0
1 775 780 799 865 869 944 0
1  0
1 51 79 114 131 156 196 206 218 262 296 318 0
1 371 394 401 413 437 458 533 631 658 682 708 0
1 739 768 798 989 992 0
1  0
1 35 36 98 167 303 380 477 496 598 723 733 0
1 744 748 815 834 866 881 889 931 965 976 986 0
1  0
1  0
1 73 161 186 206 211 261 301 350 356 372 423 0
1 439 484 519 533 640 648 650 718 753 801 851 0
1 933 989 0
1  0
1 131 150 153 182 222 238 299 364 368 404 422 0
1 476 494 540 575 599 679 693 813 822 922 952 0
1  0
1  0
1 60 111 131 138 285 288 342 347 395 415 425 0
1 482 530 642 757 771 864 945 976 0
1  0
1 146 163 165 171 179 189 298 310 313 432 448 0
1 531 555 573 595 606 668 680 715 719 787 844 0
1 875 908 919 948 0
1  0
1 82 98 145 185 192 281 518 563 610 622 655 0
1 735 737 786 817 819 891 997 0
1  0
1 105 204 238 249 286 347 484 528 544 584 588 0
1 628 697 717 740 757 773 795 831 844 856 885 0
1 920 954 0
1  0
1 77 79 121 174 278 335 365 388 394 550 581 0
1 663 673 732 768 854 889 938 0
1  0
1 77 98 186 250 286 304 402 432 433 454 462 0
1 533 682 801 825 843 858 937 983 0
1  0
1 19 69 96 159 201 211 341 460 574 588 643 0
1 931 995 0
1  0
1 20 137 167 275 282 338 393 501 546 561 595 0
1 639 731 740 828 831 954 0
1  0
1 16 80 84 89 256 264 429 470 629 682 756 0
1 796 855 928 981 0
1  0
1 137 171 173 232 236 271 358 397 421 433 452 0
1 529 556 557 706 739 766 770 828 886 903 913 0
1  0
1  0
1 42 56 78 161 270 279 300 314 356 538 570 0
1 649 692 738 799 816 817 900 946 0
1  0
1 36 88 107 181 237 251 353 372 469 470 560 0
1 609 736 771 843 861 0
1  0
1 57 72 113 177 200 216 243 244 252 346 404 0
1 433 635 687 706 750 778 794 863 878 0
1  0
1 109 112 125 160 170 188 270 317 328 340 523 0
1 665 675 731 809 871 0
1  0
1 102 105 122 123 173 247 302 320 542 690 759 0
1 816 833 971 0
1  0
1 186 192 256 265 297 393 397 417 530 538 553 0
1 631 664 728 848 869 949 970 975 0
1  0
1 15 78 150 155 312 389 406 508 509 552 679 0
1 790 822 920 953 0
1  0
1 193 232 247 280 320 322 360 466 475 504 512 0
1 686 709 737 763 846 853 927 929 0
1  0
1 44 59 90 124 191 237 246 329 334 427 441 0
1 500 564 594 596 698 820 860 913 949 974 0
1  0
1 81 85 104 155 374 410 451 458 471 666 684 0
1 776 807 845 901 935 987 0
1  0
1 188 246 257 288 308 353 371 460 576 580 684 0
1 757 829 0
1  0
1 54 75 228 257 275 297 326 420 422 473 560 0
1 748 781 793 922 0
1  0
1 93 98 169 253 273 309 335 352 401 420 472 0
1 540 599 687 921 0
1  0
1 50 276 380 411 431 506 565 583 590 685 748 0
1 817 819 884 932 934 953 975 0
1  0
1 153 184 194 227 235 258 311 339 366 379 385 0
1 447 451 453 516 562 596 716 718 800 807 854 0
1 928 0
1  0
1 217 351 379 421 438 592 639 813 887 915 972 0
1  0
1 64 68 71 108 128 211 218 287 412 428 489 0
1 621 664 730 732 812 813 865 889 933 984 0
1  0
1 183 240 306 364 405 499 531 552 639 746 750 0
1 756 848 905 942 0
1  0
1 84 129 194 239 280 284 290 291 305 310 315 0
1 352 466 539 662 685 786 806 870 932 996 0
1  0
1 42 47 58 87 206 258 305 331 466 488 600 0
1 647 674 731 801 824 904 950 0
1  0
1 99 138 178 225 232 239 240 266 414 455 611 0
1 691 820 955 0
1  0
1 45 111 195 197 236 258 302 335 372 373 378 0
